&CONTROL
    calculation = 'relax',
    restart_mode = 'from_scratch',
    prefix = 'Cr2N_CH4_R4',
    nstep = 200,
    pseudo_dir = '/home/tomas.rojas_s/pseudo/',
    outdir = './',
/

&SYSTEM
    ntyp = 4,
    nat = 77,
    ibrav = 0,
    ecutwfc = 70.0,
    ecutrho = 840.0,
    occupations = 'smearing', smearing = 'mp', degauss = 0.02,
    vdw_corr = 'dft-d3',
/

&ELECTRONS
    conv_thr = 1.0d-8,
    mixing_beta = 0.2,
    diagonalization = 'david'
/

&IONS
    ion_dynamics = 'bfgs',
/

&CELL
/

ATOMIC_SPECIES
Cr 51.9961 Cr.pbe-spn-kjpaw_psl.1.0.0.UPF
N  14.0067 N.pbe-n-kjpaw_psl.1.0.0.UPF
C  12.011  C.pbe-n-kjpaw_psl.1.0.0.UPF
H  1.008   H.pbe-kjpaw_psl.1.0.0.UPF

K_POINTS automatic
4 4 1 0 0 0

CELL_PARAMETERS angstrom
9.5027394073 0.0 0.0
-4.7513697036 8.2296098952 0.0
0.0 0.0 20.75351356

ATOMIC_POSITIONS (angstrom)
Cr              -1.5713861154        2.8222224930        8.2317095899
Cr               3.2176385302        0.0560542324        8.2322687957
Cr               0.8058278847        1.4104054094        8.2321857979
Cr               1.6516322360        2.8802023359        6.1063172855
Cr              -0.7247652906        1.3533570372        6.1101151345
Cr               1.5208693983        0.0582365504        6.1068969743
N                0.0252436482        0.0604592719        5.0528597964
N                2.3966314817        1.4341794783        7.0854177196
N                0.0248099730        2.8021530158        7.0897096035
Cr              -1.6288137279        2.9104649483       12.4986761934
Cr               3.3309302300        0.0482589728       12.4959051370
Cr               0.7287287199        1.2700228177       12.4645321914
Cr               1.6266716901        2.8215285257       10.4292118822
Cr              -0.7642768755        1.4031502519       10.4176953643
Cr               1.5864603860        0.0443369445       10.4172695818
N                0.0279756489        0.0596375706        9.3071818574
N                2.3969940627        1.4279614938       11.5423036876
N                0.0288738340        2.7948815482       11.5453408552
Cr              -3.9452027665        6.9373628802        8.2300217018
Cr               0.8442954009        4.1717700735        8.2303050637
Cr              -1.5701721443        5.5228273699        8.2294425731
Cr              -0.7223074543        6.9918057379        6.1069839529
Cr              -3.0972553950        5.4691825058        6.1105796112
Cr              -0.8550449634        4.1742618004        6.1095654354
N               -2.3493913941        4.1741796474        5.0523865922
N                0.0258372378        5.5454677680        7.0895033867
N               -2.3489260694        6.9185193592        7.0877646201
Cr              -3.9912448385        7.0220996815       12.5084834607
Cr               0.9112217620        4.1663724475       12.5167415870
Cr              -1.6286068116        5.4305694522       12.5130338747
Cr              -0.7527650097        6.9311091729       10.4237616997
Cr              -3.1159420855        5.5213354917       10.4160711328
Cr              -0.7846651134        4.1712180085       10.4298130976
N               -2.3477464279        4.1698369691        9.3123976121
N                0.0321500069        5.5412156963       11.5621898300
N               -2.3473022667        6.9101958013       11.5429533067
Cr               3.1817947537        2.8228895498        8.2325374341
Cr               7.9705821042        0.0574862538        8.2314527466
Cr               5.5560993582        1.4074554155        8.2165768272
Cr               6.4028025531        2.8779848834        6.1018396399
Cr               4.0338660359        1.3534056659        6.1109563997
Cr               6.2723857417        0.0585000028        6.1107333476
N                4.7784821538        0.0587026190        5.0521441976
N                7.1576326105        1.4301951764        7.0921119682
N                4.7779726784        2.8026568495        7.0884137747
Cr               3.1432208143        2.8545365025       12.5403540144
Cr               8.0692434190        0.0581325916       12.5094742300
Cr               5.5051083334        1.3078874688       12.5124983142
Cr               6.3654035462        2.8182069285       10.4267987571
Cr               3.9942186522        1.4136864457       10.4292349745
Cr               6.3299136435        0.0677269186       10.4167074977
N                4.7705351730        0.0583122387        9.3195789895
N                7.1481078924        1.4276082708       11.5448861078
N                4.7632246277        2.8054434728       11.5708938170
Cr               0.8037960322        6.9342159219        8.2369660452
Cr               5.5902520942        4.1700348994        8.2331401828
Cr               3.1798416071        5.5188908954        8.2314661684
Cr               4.0290971554        6.9943830422        6.1093326895
Cr               1.6518784718        5.4702318629        6.1088188458
Cr               3.8981560847        4.1728238106        6.1063113951
N                2.3981569031        4.1789152810        5.0518682296
N                4.7771388592        5.5446423462        7.0881421918
N                2.3989161848        6.9119588320        7.0880034173
Cr               0.7331994855        7.0545076381       12.5048898006
Cr               5.7353241430        4.1671448972       12.5046561076
Cr               3.1609065295        5.4870993993       12.4534284376
Cr               3.9972673688        6.9335543874       10.4259353602
Cr               1.6129305264        5.5256113691       10.4184640995
Cr               3.9673111232        4.1619627153       10.4236363806
N                2.4033526243        4.1681690840        9.3145451052
N                4.8028826835        5.5350516890       11.5341948829
N                2.3840450528        6.9337536454       11.5337580572
C                2.0098890885        3.2941355508       15.1209899325
H                2.7022949459        3.9283939745       15.7844073981
H                1.2889081848        2.6473232181       15.7876775229
H                1.3852725130        4.0742999422       14.5169107282
H                2.6510908757        2.5476205431       14.4295555073
