&CONTROL
    calculation = 'relax',
    restart_mode = 'from_scratch',
    prefix = 'CH4-H31_Rot30_bridge_',
    nstep = 200,
    pseudo_dir = 'pseudo/',
    outdir = 'tmp/CH4-H31_Rot30_bridge_',
    max_seconds=86100
/

&SYSTEM
    ntyp = 4,
    nat = 77,
    ibrav = 0,
    ecutwfc = 70.0,
    ecutrho = 840.0,
    occupations = 'smearing', smearing = 'mp', degauss = 0.02,
    vdw_corr = 'dft-d3',
/

&ELECTRONS
    conv_thr = 1.0d-8,
    mixing_beta = 0.2,
    diagonalization = 'david'
/

&IONS
    ion_dynamics = 'bfgs'
/

&CELL
/


ATOMIC_SPECIES
Cr 51.9961 Cr.pbe-spn-kjpaw_psl.1.0.0.UPF
N  14.0067 N.pbe-n-kjpaw_psl.1.0.0.UPF
C  12.011  C.pbe-n-kjpaw_psl.1.0.0.UPF
H  1.008   H.pbe-kjpaw_psl.1.0.0.UPF

K_POINTS automatic
4 4 1 0 0 0

CELL_PARAMETERS angstrom
9.5027394073 0.0 0.0
-4.7513697036 8.2296098952 0.0
0.0 0.0 20.75351356

ATOMIC_POSITIONS angstrom
Cr      -1.59797217       2.76776899       8.24267413
Cr       3.19594435       0.00000000       8.24267413
Cr       0.77770850       1.34703064       8.24266972
Cr       1.60118342       2.77333103       6.10623093
Cr      -0.77450144       1.34147584       6.10623093
Cr       1.54900288       0.00000000       6.10623093
N        0.00000000       0.00000000       5.00000000
N        2.37568505       1.37160246       7.11335076
N        0.00000005       2.74320483       7.11335076
Cr      -1.64397519       2.84744855      12.49489242
Cr       3.28795038       0.00000000      12.49489242
Cr       0.73173843       1.26740814      12.49490978
Cr       1.59369654       2.76036338      10.42348977
Cr      -0.78198142       1.35443156      10.42349584
Cr       1.56396285       0.00000000      10.42349584
N        0.00000000       0.00000000       9.32075261
N        2.37568853       1.37159855      11.54167072
N       -0.00000507       2.74320589      11.54167072
Cr      -3.97366121       6.88258311       8.24266972
Cr       0.82026092       4.11480554       8.24267746
Cr      -1.59797404       5.46184419       8.24267746
Cr      -0.77450144       6.88813790       6.10623093
Cr      -3.15018629       5.45628272       6.10623093
Cr      -0.82668198       4.11480687       6.10623093
N       -2.37568486       4.11480687       5.00000000
N        0.00000000       5.48640916       7.11335217
N       -2.37568466       6.85801128       7.11335076
Cr      -4.01963128       6.96220561      12.49490978
Cr       0.91223276       4.11480109      12.49491356
Cr      -1.64396382       5.38219645      12.49491356
Cr      -0.78197883       6.87517507      10.42349011
Cr      -3.15767317       5.46925037      10.42348977
Cr      -0.81171714       4.11481268      10.42349011
N       -2.37568536       4.11480775       9.32075209
N        0.00000000       5.48640916      11.54167997
N       -2.37568119       6.85801520      11.54167072
Cr       3.15339567       2.76776956       8.24267746
Cr       7.94732242       0.00000000       8.24266972
Cr       5.52908284       1.34703598       8.24267746
Cr       6.35255313       2.77333103       6.10623093
Cr       3.97686827       1.34147584       6.10623093
Cr       6.30037259       0.00000000       6.10623093
N        4.75136971       0.00000000       5.00000000
N        7.12705432       1.37160237       7.11335076
N        4.75136971       2.74320458       7.11335217
Cr       3.10740590       2.84741729      12.49491356
Cr       8.03926256       0.00000000      12.49490978
Cr       5.48310076       1.26738380      12.49491356
Cr       6.34506568       2.76037400      10.42349011
Cr       3.96939088       1.35443868      10.42349011
Cr       6.31534634       0.00000000      10.42348977
N        4.75137072       0.00000000       9.32075209
N        7.12705597       1.37160734      11.54167072
N        4.75136971       2.74320458      11.54167997
Cr       0.77771312       6.88257777       8.24267746
Cr       5.57163063       4.11480820       8.24267746
Cr       3.15339754       5.46184475       8.24267413
Cr       3.97686827       6.88813790       6.10623093
Cr       1.60118342       5.45628272       6.10623093
Cr       3.92468773       4.11480687       6.10623093
N        2.37568486       4.11480687       5.00000000
N        4.75136976       5.48640891       7.11335076
N        2.37568461       6.85801138       7.11335076
Cr       0.73173105       6.96222995      12.49491356
Cr       5.66360248       4.11481265      12.49491356
Cr       3.10739452       5.38216519      12.49489242
Cr       3.96938829       6.87518219      10.42349584
Cr       1.59369597       5.46923975      10.42349011
Cr       3.93965258       4.11480106      10.42349011
N        2.37568435       4.11480600       9.32075209
N        4.75136464       5.48640786      11.54167072
N        2.37568626       6.85800641      11.54167072
C        2.00981933       3.48110919      14.85820156
H        2.00986108       3.48103687      15.94818113
H        2.52362671       2.59116870      14.49479630
H        0.98216282       3.48113330      14.49491440
H        2.52362671       4.37109789      14.49491440