&CONTROL
    calculation = 'relax',
    restart_mode = 'from_scratch',
    prefix = 'Cr2N_CH4_R1',
    nstep = 200,
    pseudo_dir = '/home/tomas.rojas_s/pseudo/',
    outdir = './',
/

&SYSTEM
    ntyp = 4,
    nat = 77,
    ibrav = 0,
    ecutwfc = 70.0,
    ecutrho = 840.0,
    occupations = 'smearing', smearing = 'mp', degauss = 0.02,
    vdw_corr = 'dft-d3',
/

&ELECTRONS
    conv_thr = 1.0d-8,
    mixing_beta = 0.2,
    diagonalization = 'david'
/

&IONS
    ion_dynamics = 'bfgs',
/

&CELL
/

ATOMIC_SPECIES
Cr 51.9961 Cr.pbe-spn-kjpaw_psl.1.0.0.UPF
N  14.0067 N.pbe-n-kjpaw_psl.1.0.0.UPF
C  12.011  C.pbe-n-kjpaw_psl.1.0.0.UPF
H  1.008   H.pbe-kjpaw_psl.1.0.0.UPF

K_POINTS automatic
4 4 1 0 0 0

CELL_PARAMETERS angstrom
9.5027394073 0.0 0.0
-4.7513697036 8.2296098952 0.0
0.0 0.0 20.75351356

ATOMIC_POSITIONS (angstrom)
Cr              -1.6055403558        2.7395954096        8.2322466729
Cr               3.1836636419       -0.0257502909        8.2307370407
Cr               0.7749689520        1.3259111630        8.2324507513
Cr               1.6254651729        2.8030533604        6.1146268079
Cr              -0.7551565310        1.2623284918        6.1162840394
Cr               1.4750380635       -0.0252681679        6.1121098655
N               -0.0148246749       -0.0245222694        5.0700941477
N                2.3670942769        1.3632089306        7.0801708754
N               -0.0075051885        2.7192777477        7.0840279633
Cr              -1.6654709324        2.8228232160       12.4986857963
Cr               3.2817036583       -0.0256998599       12.5110810647
Cr               0.6993605999        1.2049256956       12.4938300700
Cr               1.5815052830        2.7347470658       10.4275942392
Cr              -0.7916401286        1.3297725379       10.4289588599
Cr               1.5501009991       -0.0292142017       10.4261184384
N               -0.0079844164       -0.0242066017        9.3161562060
N                2.3578344224        1.3406049469       11.5469674286
N                0.0089833640        2.7348731152       11.5606392758
Cr              -3.9796775093        6.8571031053        8.2325421188
Cr               0.8069445587        4.0926006153        8.2334887903
Cr              -1.6049312291        5.4450789365        8.2315365680
Cr              -0.7512451623        6.9215986246        6.1160077237
Cr              -3.1270610967        5.3785530736        6.1154278098
Cr              -0.8979863173        4.0915627776        6.1151655367
N               -2.3826933168        4.0923174348        5.0718579564
N               -0.0084786628        5.4625477607        7.0841756472
N               -2.3851410846        6.8346651034        7.0829611584
Cr              -4.0298703810        6.9509408086       12.5203174492
Cr               0.8317057932        4.0995818825       12.6179528735
Cr              -1.6747350443        5.3485036313       12.4878230345
Cr              -0.7952217884        6.8594448461       10.4225731804
Cr              -3.1663007473        5.4435140553       10.4270696440
Cr              -0.8156850090        4.0897451283       10.4281926068
N               -2.3815780661        4.0928082374        9.3184482097
N               -0.0050033498        5.4613142616       11.5501802513
N               -2.3877430032        6.8378355562       11.5450195836
Cr               3.1385375364        2.7284781259        8.2296548428
Cr               7.9329886112       -0.0368134546        8.2328630299
Cr               5.5245698980        1.3094430383        8.2264848338
Cr               6.3704891961        2.8006653338        6.1056980794
Cr               4.0015924176        1.2504636153        6.1288884374
Cr               6.2225959249       -0.0201479102        6.1229359633
N                4.7429387234       -0.0232265295        5.0702641433
N                7.1141520642        1.3531796734        7.0845604119
N                4.7389737260        2.7228882969        7.0788673961
Cr               3.1261024399        2.7961800766       12.4709579386
Cr               8.0421907487       -0.0233254407       12.5105380813
Cr               5.4709905660        1.2339144723       12.5162851650
Cr               6.3374383073        2.7403041515       10.4291621944
Cr               3.9570363953        1.3317733906       10.4337043298
Cr               6.3007865589       -0.0176026529       10.4261836642
N                4.7431205487       -0.0215607788        9.3137707300
N                7.1167994806        1.3427573999       11.5492024450
N                4.7569085126        2.7201380691       11.5440398850
Cr               0.7701154520        6.8546872180        8.2324389065
Cr               5.5514033533        4.0915739572        8.2358672576
Cr               3.1445690442        5.4402452621        8.2344004033
Cr               3.9961024258        6.9220623748        6.1162449290
Cr               1.6246354003        5.3769857541        6.1175386339
Cr               3.8512241288        4.0957439404        6.1099127291
N                2.3617851742        4.0892455953        5.0716106947
N                4.7409663427        5.4642441692        7.0843787259
N                2.3659899875        6.8349662876        7.0894717301
Cr               0.7020484325        6.9766543963       12.4734445067
Cr               5.6813262014        4.0892615407       12.5194755609
Cr               3.1317505902        5.3751910156       12.4859119097
Cr               3.9637642929        6.8484993632       10.4308938125
Cr               1.5785542187        5.4447385180       10.4330496821
Cr               3.9313452274        4.0907702700       10.4205985158
N                2.3644184434        4.0903175692        9.3206191418
N                4.7530987843        5.4606815230       11.5461624089
N                2.3620382848        6.8358763012       11.5448478283
C                1.0726763640        4.4398279744       15.1010952343
H                0.5063658037        4.9069826975       15.8450993769
H                1.8459243552        3.8403286326       15.4648425653
H                0.3411008986        3.8238957564       14.4747474211
H                1.5199455076        5.2959526882       14.4416895295
