&CONTROL
    calculation = 'relax',
    restart_mode = 'from_scratch',
    prefix = 'Cr2N_CH4_R3',
    nstep = 200,
    pseudo_dir = '/home/tomas.rojas_s/pseudo/',
    outdir = './',
/

&SYSTEM
    ntyp = 4,
    nat = 77,
    ibrav = 0,
    ecutwfc = 70.0,
    ecutrho = 840.0,
    occupations = 'smearing', smearing = 'mp', degauss = 0.02,
    vdw_corr = 'dft-d3',
/

&ELECTRONS
    conv_thr = 1.0d-8,
    mixing_beta = 0.2,
    diagonalization = 'david'
/

&IONS
    ion_dynamics = 'bfgs',
/

&CELL
/

ATOMIC_SPECIES
Cr 51.9961 Cr.pbe-spn-kjpaw_psl.1.0.0.UPF
N  14.0067 N.pbe-n-kjpaw_psl.1.0.0.UPF
C  12.011  C.pbe-n-kjpaw_psl.1.0.0.UPF
H  1.008   H.pbe-kjpaw_psl.1.0.0.UPF

K_POINTS automatic
4 4 1 0 0 0

CELL_PARAMETERS angstrom
9.5027394073 0.0 0.0
-4.7513697036 8.2296098952 0.0
0.0 0.0 20.75351356

ATOMIC_POSITIONS (angstrom)
Cr              -1.5912091934        2.7832875142        8.2355187785
Cr               3.1978679204        0.0124531113        8.2398244148
Cr               0.7854941211        1.3715198371        8.2372876084
Cr               1.6335757828        2.8397017316        6.1036307199
Cr              -0.7423513920        1.3129115749        6.1058946658
Cr               1.5014280491        0.0153072354        6.1015725880
N                0.0043238708        0.0214071531        5.0533166313
N                2.3763604413        1.3934967409        7.0939228589
N                0.0056846432        2.7626017444        7.0978183613
Cr              -1.6465963763        2.8724978875       12.4992200804
Cr               3.3124508606        0.0086378121       12.4949787606
Cr               0.7069978888        1.2258694155       12.4618474783
Cr               1.6093316161        2.7831371770       10.4322563567
Cr              -0.7841625313        1.3642953652       10.4177937280
Cr               1.5677343242        0.0041222216       10.4178762845
N                0.0095471412        0.0188524111        9.3094587126
N                2.3781118823        1.3880325609       11.5417983713
N                0.0101201785        2.7554634640       11.5460467106
Cr              -3.9649058851        6.8968045832        8.2335841360
Cr               0.8274248647        4.1302995931        8.2333744795
Cr              -1.5888143392        5.4809990783        8.2331093819
Cr              -0.7418599433        6.9487007472        6.1010161753
Cr              -3.1159955526        5.4262552026        6.1070860426
Cr              -0.8746697293        4.1336391588        6.1058860437
N               -2.3690108449        4.1319937883        5.0551120685
N                0.0079788006        5.5045769189        7.0984911261
N               -2.3675705258        6.8765514716        7.0954102954
Cr              -4.0084557830        6.9816764744       12.5087109774
Cr               0.8926247585        4.1255624300       12.5114709829
Cr              -1.6473140148        5.3913029494       12.5154113521
Cr              -0.7724992038        6.8869507929       10.4274494740
Cr              -3.1327276927        5.4816850257       10.4160951665
Cr              -0.8039383863        4.1328662040       10.4306836913
N               -2.3671031860        4.1285362697        9.3143096025
N                0.0143255500        5.5017043571       11.5662215882
N               -2.3662411085        6.8699525027       11.5438028689
Cr               3.1646666700        2.7868498589        8.2369958686
Cr               7.9524183367        0.0231350660        8.2366526536
Cr               5.5351119818        1.3723227523        8.2216760692
Cr               6.3862250183        2.8396385308        6.1021621808
Cr               4.0139486568        1.3164847542        6.1035345466
Cr               6.2571295468        0.0159812028        6.1028643824
N                4.7596694382        0.0172629567        5.0560499813
N                7.1406948139        1.3872837030        7.0998601028
N                4.7592246164        2.7608329670        7.0990171301
Cr               3.1241533812        2.8079345455       12.5438967372
Cr               8.0484671508        0.0202030860       12.5101607664
Cr               5.4862364663        1.2701021484       12.5140356445
Cr               6.3454709851        2.7785639156       10.4285888059
Cr               3.9760897349        1.3754120508       10.4288780945
Cr               6.3113172503        0.0298075667       10.4167879778
N                4.7514213799        0.0166959685        9.3241774656
N                7.1284960034        1.3892129276       11.5463109037
N                4.7442462240        2.7674397329       11.5747965623
Cr               0.7849125275        6.8936031408        8.2429272194
Cr               5.5735077716        4.1288007381        8.2366406949
Cr               3.1621346579        5.4772280888        8.2358181617
Cr               4.0105288293        6.9532713623        6.1040722400
Cr               1.6318929849        5.4285892657        6.1036139634
Cr               3.8796335889        4.1286307322        6.1051442671
N                2.3816207762        4.1377165540        5.0570329990
N                4.7583657740        5.5030291970        7.0960258828
N                2.3803110962        6.8684213504        7.0944020129
Cr               0.7138454739        7.0184918925       12.5065062133
Cr               5.7207353312        4.1289055170       12.5066440427
Cr               3.1394038895        5.4444931556       12.4648000431
Cr               3.9788055244        6.8952581122       10.4287611319
Cr               1.5954156298        5.4839288752       10.4201618486
Cr               3.9483451361        4.1216877965       10.4285775681
N                2.3853275903        4.1284031133        9.3182646867
N                4.7822448440        5.4949335158       11.5364415521
N                2.3646339626        6.8934749178       11.5346368095
C                1.9397583396        3.2843219206       15.1067594097
H                2.5716526696        3.7847268377       15.8043914134
H                1.2671206789        2.5932894652       15.6852305263
H                1.2824348907        3.9781946841       14.5263027075
H                2.4966113828        2.5857418379       14.3750329298
